p wcnf 175 350 351 
1 93 -70 0 
1 95 -164 0 
1 -167 65 0 
1 -117 168 0 
1 158 19 0 
1 -18 -30 0 
1 109 77 0 
1 -32 -174 0 
1 -158 -5 0 
1 62 -4 0 
1 141 159 0 
1 98 136 0 
1 153 78 0 
1 80 169 0 
1 -113 -57 0 
1 112 -90 0 
1 151 -149 0 
1 103 -143 0 
1 -171 20 0 
1 140 104 0 
1 140 171 0 
1 5 -136 0 
1 137 129 0 
1 -99 137 0 
1 -19 -40 0 
1 147 -88 0 
1 54 -6 0 
1 140 121 0 
1 173 158 0 
1 -124 24 0 
1 -126 76 0 
1 -48 -34 0 
1 -22 18 0 
1 87 80 0 
1 141 -68 0 
1 -7 138 0 
1 175 139 0 
1 -141 43 0 
1 87 174 0 
1 -16 -114 0 
1 -116 -65 0 
1 123 102 0 
1 -1 -126 0 
1 125 17 0 
1 -3 30 0 
1 2 -138 0 
1 -115 -165 0 
1 -146 134 0 
1 -119 117 0 
1 -125 85 0 
1 66 140 0 
1 -46 -57 0 
1 -148 135 0 
1 22 7 0 
1 -156 -20 0 
1 -147 -114 0 
1 152 48 0 
1 82 -144 0 
1 19 -31 0 
1 126 -66 0 
1 53 12 0 
1 48 -32 0 
1 -44 -61 0 
1 -172 90 0 
1 166 -6 0 
1 17 25 0 
1 110 83 0 
1 -118 -171 0 
1 -30 -168 0 
1 122 -173 0 
1 130 132 0 
1 -26 -89 0 
1 51 -156 0 
1 140 -117 0 
1 9 60 0 
1 -86 50 0 
1 -19 146 0 
1 -48 69 0 
1 30 -15 0 
1 -143 -153 0 
1 109 -51 0 
1 39 101 0 
1 -59 -73 0 
1 125 -81 0 
1 45 -79 0 
1 -34 -35 0 
1 112 104 0 
1 40 -78 0 
1 11 -145 0 
1 171 -161 0 
1 99 61 0 
1 -155 -108 0 
1 2 166 0 
1 -164 -122 0 
1 104 -12 0 
1 -41 64 0 
1 -126 150 0 
1 134 -175 0 
1 -11 -29 0 
1 73 46 0 
1 50 174 0 
1 10 -58 0 
1 -87 91 0 
1 83 -76 0 
1 90 115 0 
1 -144 92 0 
1 -52 168 0 
1 92 83 0 
1 -22 61 0 
1 -118 -171 0 
1 -124 -173 0 
1 174 60 0 
1 -116 144 0 
1 159 -79 0 
1 138 -157 0 
1 -52 -93 0 
1 -102 78 0 
1 100 -6 0 
1 -114 -167 0 
1 -77 96 0 
1 75 -94 0 
1 11 143 0 
1 -45 147 0 
1 -140 34 0 
1 133 -3 0 
1 112 -47 0 
1 124 -149 0 
1 -37 13 0 
1 143 -173 0 
1 -66 -14 0 
1 67 -55 0 
1 122 64 0 
1 124 -97 0 
1 -58 -99 0 
1 -52 -154 0 
1 -171 14 0 
1 -37 61 0 
1 35 -62 0 
1 160 142 0 
1 -143 -150 0 
1 -144 151 0 
1 -90 -165 0 
1 -104 -40 0 
1 26 63 0 
1 80 -97 0 
1 95 86 0 
1 11 156 0 
1 120 91 0 
1 -143 145 0 
1 -45 -64 0 
1 146 -105 0 
1 -42 108 0 
1 -46 -174 0 
1 -38 -88 0 
1 12 -62 0 
1 96 -133 0 
1 85 134 0 
1 -129 102 0 
1 -166 -94 0 
1 -95 -56 0 
1 59 -111 0 
1 -26 136 0 
1 79 -98 0 
1 166 74 0 
1 72 79 0 
1 45 28 0 
1 -92 -59 0 
1 72 -45 0 
1 116 75 0 
1 157 -45 0 
1 122 -2 0 
1 -161 71 0 
1 -62 -40 0 
1 -94 -67 0 
1 -142 -59 0 
1 146 -99 0 
1 -108 155 0 
1 66 -9 0 
1 43 113 0 
1 59 74 0 
1 87 -68 0 
1 157 -64 0 
1 -55 38 0 
1 -65 106 0 
1 -139 131 0 
1 24 -91 0 
1 -85 14 0 
1 -87 -81 0 
1 71 43 0 
1 -71 51 0 
1 -79 35 0 
1 -80 -33 0 
1 -135 168 0 
1 74 110 0 
1 175 -77 0 
1 109 -66 0 
1 -75 94 0 
1 62 151 0 
1 -81 141 0 
1 -35 47 0 
1 -62 83 0 
1 -146 75 0 
1 84 140 0 
1 -106 -32 0 
1 74 123 0 
1 -169 167 0 
1 118 -17 0 
1 -29 82 0 
1 -104 102 0 
1 40 138 0 
1 -49 128 0 
1 -167 -61 0 
1 -155 -30 0 
1 -131 31 0 
1 -105 -87 0 
1 43 101 0 
1 73 -133 0 
1 -24 -172 0 
1 -78 8 0 
1 -81 -59 0 
1 138 63 0 
1 132 26 0 
1 -14 -102 0 
1 6 -83 0 
1 53 -54 0 
1 -57 67 0 
1 25 118 0 
1 88 46 0 
1 -41 12 0 
1 67 159 0 
1 135 8 0 
1 -84 -92 0 
1 56 123 0 
1 -57 -54 0 
1 125 -53 0 
1 75 -82 0 
1 -63 -9 0 
1 120 43 0 
1 -51 163 0 
1 61 70 0 
1 -79 -160 0 
1 -66 -9 0 
1 -23 99 0 
1 111 -95 0 
1 136 -142 0 
1 -74 103 0 
1 64 -119 0 
1 -160 -152 0 
1 -154 116 0 
1 30 -58 0 
1 -125 -118 0 
1 44 -121 0 
1 10 90 0 
1 131 95 0 
1 132 128 0 
1 92 -169 0 
1 -56 -9 0 
1 -143 -95 0 
1 3 148 0 
1 -146 6 0 
1 -139 164 0 
1 -110 55 0 
1 -89 -162 0 
1 -86 97 0 
1 167 72 0 
1 18 57 0 
1 -87 -78 0 
1 145 -141 0 
1 30 -29 0 
1 -64 127 0 
1 -61 137 0 
1 -129 113 0 
1 160 -29 0 
1 26 -7 0 
1 41 53 0 
1 51 -27 0 
1 45 171 0 
1 -82 66 0 
1 -67 153 0 
1 117 19 0 
1 -24 147 0 
1 -32 23 0 
1 146 -77 0 
1 119 -102 0 
1 158 122 0 
1 -92 141 0 
1 -149 -49 0 
1 102 113 0 
1 -105 91 0 
1 -112 173 0 
1 -175 110 0 
1 109 32 0 
1 -7 14 0 
1 26 122 0 
1 173 -36 0 
1 -50 11 0 
1 -33 72 0 
1 -57 119 0 
1 -91 -76 0 
1 35 34 0 
1 136 75 0 
1 -132 -70 0 
1 101 104 0 
1 -2 27 0 
1 -164 44 0 
1 -123 -62 0 
1 93 53 0 
1 140 1 0 
1 -66 25 0 
1 -154 115 0 
1 -152 -59 0 
1 105 148 0 
1 -91 122 0 
1 16 -75 0 
1 -82 -123 0 
1 158 99 0 
1 47 36 0 
1 12 139 0 
1 43 -92 0 
1 -93 -87 0 
1 -69 -162 0 
1 44 108 0 
1 107 114 0 
1 55 -59 0 
1 -67 -133 0 
1 99 -154 0 
1 23 -109 0 
1 -58 36 0 
1 169 41 0 
1 -82 -98 0 
1 11 -90 0 
1 158 -137 0 
1 -86 -162 0 
1 49 91 0 
1 -32 -148 0 
1 -70 65 0 
1 66 -23 0 
1 123 4 0 
1 -25 -163 0 
1 126 103 0 
1 -82 161 0 
1 144 -30 0 
1 -139 67 0 
1 -75 -171 0 
1 -53 93 0 
1 -144 123 0 
1 19 -108 0 
1 -15 -85 0 
1 50 -129 0 
1 33 147 0 
